96
25
0 27 28 33 34 35 36 37 38 39 42 46 47 48 50 51 53 54 56 57 61 63 65 67 70 72 74 75 77 78 82 83 88 90 93
1 25 28 32 33 36 37 38 46 47 48 49 50 53 54 56 57 58 61 64 67 68 69 71 72 74 75 76 77 78 79 83 86 93 94
2 25 31 32 33 34 35 36 42 44 48 49 50 53 54 57 58 59 60 61 62 63 69 71 72 74 75 76 77 82 83 84 88 93
3 25 28 29 33 36 37 38 44 46 48 49 50 54 55 57 58 59 60 61 63 64 65 66 70 71 72 73 74 75 76 77 78 82 83 88 89 92 93
4 25 33 35 36 42 44 46 47 48 50 51 54 58 59 61 70 72 73 75 76 77 78 80 82 83 87 88 90 93
5 25 31 32 33 34 36 37 39 42 44 45 49 50 53 55 57 61 62 63 65 68 71 72 73 76 77 78 80 82 83 89
6 25 27 28 31 32 33 34 36 38 39 42 49 50 51 52 53 55 56 58 60 61 63 71 72 73 76 78 80 82 84 88 90 92 93 94
7 32 33 36 37 39 44 47 48 49 51 53 54 55 56 57 58 59 61 62 63 69 70 72 75 77 78 80 81 82 83 91 92 93 94
8 25 27 32 33 34 35 38 39 41 42 44 47 48 49 51 54 56 57 61 63 64 70 72 74 75 76 77 80 81 82 83 88 93 94
9 28 29 32 33 37 39 41 43 44 48 49 50 51 55 56 58 64 67 68 70 71 72 73 75 76 80 81 83 91 93 94
10 27 28 30 34 35 36 39 41 42 47 48 49 50 51 53 54 56 57 59 61 63 64 65 72 75 81 82 83 85 88 89 94
11 27 28 31 32 34 35 36 38 39 43 46 48 51 54 55 56 57 58 61 63 67 73 75 76 77 78 80 81 83 84 93
12 25 26 28 29 32 33 35 46 50 54 58 60 61 63 64 71 73 74 75 80 81 82 83 88
13 25 27 28 29 31 34 36 37 50 53 54 56 57 58 59 61 65 67 73 74 80 81 83 86 88 90 94
14 25 31 34 38 42 44 46 47 48 49 50 51 52 56 58 59 60 63 64 71 73 74 75 81 94
15 25 31 35 37 39 44 45 46 47 57 72 73 74 75 77 78 89 90 93
16 27 31 33 35 38 39 42 43 46 53 58 59 60 61 67 76 77 78 80 81 86 88 89 90 92
17 27 34 36 37 39 46 47 51 53 57 62 64 67 68 70 71 79 81 88 89
18 27 29 31 32 34 38 43 46 48 52 54 58 60 61 68 70 71 72 84 90
19 28 37 44 48 56 60 71 76 79 83 89 93
20 25 32 37 40 49 56 59 62 67 68 70 75 76 77 78 87 92
21 34 39 48 51 59 70 78 84 95
22 25 40 55 83 91
23 39 41 60 69
24 80
